(declare-fun bvlambda_8_ () (_ BitVec 3))
(declare-fun bvlambda_13_ ()Bool         )
(declare-fun bvlambda_14_ ()Bool         )
(declare-fun bvlambda_17_ ()Bool         )
(declare-fun bvlambda_18_ ()Bool         )
(declare-fun bvlambda_24_ ()Bool         )
(declare-fun bvlambda_25_ ()Bool         )
(declare-fun bvlambda_26_ ()Bool         )
(declare-fun bvlambda_27_ ()Bool         )
(declare-fun a44 () (Array (_ BitVec 7) (_ BitVec 9)))
(declare-fun a46 () (Array (_ BitVec 10) (_ BitVec 2)))
(declare-fun a47 () (Array (_ BitVec 12) (_ BitVec 4)))
(declare-fun a48 () (Array (_ BitVec 1) (_ BitVec 13)))
(assert
(let (($e1 false    ))
(let (($e3 (_ bv2858 13)))
(let (($e5 (_ bv0 3)))
(let (($e6 (_ bv16382 14)))
(let (($e7 (_ bv0 4)))
(let (($e10 (_ bv0 5)))
(let (($e11 (_ bv0 6)))
(let (($e17 (_ bv0 2)))
(let (($e20 (_ bv0 13)))
(let (($e63         bvlambda_13_                       ))
(let (($e64        $e63      ))
(let (($e65        $e64      ))
(let (($e66 (store a48 $e1 $e3)))
(let (($e67 (select $e66 $e65)))
(let (($e69      (=        $e20  $e67)         ))
(let (($e75      (= $e5 bvlambda_8_)         ))
(let (($e76        $e75      ))
(let (($e106 (concat $e10 bvlambda_26_)))
(let (($e107 (concat $e106 bvlambda_27_)))
(let (($e108 (concat $e107 bvlambda_24_)))
(let (($e109 (concat $e108 bvlambda_25_)))
(let (($e110 (concat $e109 bvlambda_17_)))
(let (($e111 (concat $e110 bvlambda_18_)))
(let (($e112 (concat $e111 bvlambda_13_)))
(let (($e113 (concat $e112 bvlambda_14_)))
(let (($e114 (store a48 $e1 $e113)))
(let (($e171               $e6                ))
(let (($e172 (select $e114        $e76 )))
(let (($e173 true                     ))
(let (($e174 (concat $e173 $e172)))
(let (($e175      (bvult $e174 $e171)         ))
(let (($e176               $e175                ))
(let (($e188                      $e176 ))
(let (($e194 (concat $e11        $e76 )))
(let (($e195 (select a44 $e194)))
(let (($e196 (concat $e7 $e195)))
(let (($e197             $e196 ))
(let (($e198 (concat $e17 $e197)))
(let (($e201                          $e198 ))
(let (($e217                      $e188 ))
(let (($e218               $e217        ))
(let (($e238 (select a48 true       )))
(let (($e239 ((_ extract 11 0) $e238)))
(let (($e240 (select a47 $e239)))
(let (($e242 (concat        $e11  $e240)))
(let (($e244                    $e242       ))
(let (($e245 (select a46 $e244)))
(let (($e246 (concat $e20 $e245)))
(let (($e247      (bvult $e246 $e201)         ))
(let (($e248               $e247                ))
(let (($e272               $e248          ))
(let (($e273 (bvand        $e272         $e218 )))
(let (($e289              (bvnot $e273) ))
             (bvand $e289        $e69 )
                      )               ))                       ))))) ) )))                   ))               )  )))))     )           ))))))                                                        )))))))))                             ))     ) )))))               )  )     ))  ))) ) ))
